
n_res = 4;
rcap = [60, 63, 577, 589];
rtype = [1, 1, 2, 2];
n_tasks = 50;
modes =  [{1, 2, 3, 4, 5, 6}, {7, 8, 9, 10, 11, 12}, {13, 14, 15, 16, 17, 18}, {19, 20, 21, 22, 23, 24}, {25, 26, 27, 28, 29, 30}, {31, 32, 33, 34, 35, 36}, {37, 38, 39, 40, 41, 42}, {43, 44, 45, 46, 47, 48}, {49, 50, 51, 52, 53, 54}, {55, 56, 57, 58, 59, 60}, {61, 62, 63, 64, 65, 66}, {67, 68, 69, 70, 71, 72}, {73, 74, 75, 76, 77, 78}, {79, 80, 81, 82, 83, 84}, {85, 86, 87, 88, 89, 90}, {91, 92, 93, 94, 95, 96}, {97, 98, 99, 100, 101, 102}, {103, 104, 105, 106, 107, 108}, {109, 110, 111, 112, 113, 114}, {115, 116, 117, 118, 119, 120}, {121, 122, 123, 124, 125, 126}, {127, 128, 129, 130, 131, 132}, {133, 134, 135, 136, 137, 138}, {139, 140, 141, 142, 143, 144}, {145, 146, 147, 148, 149, 150}, {151, 152, 153, 154, 155, 156}, {157, 158, 159, 160, 161, 162}, {163, 164, 165, 166, 167, 168}, {169, 170, 171, 172, 173, 174}, {175, 176, 177, 178, 179, 180}, {181, 182, 183, 184, 185, 186}, {187, 188, 189, 190, 191, 192}, {193, 194, 195, 196, 197, 198}, {199, 200, 201, 202, 203, 204}, {205, 206, 207, 208, 209, 210}, {211, 212, 213, 214, 215, 216}, {217, 218, 219, 220, 221, 222}, {223, 224, 225, 226, 227, 228}, {229, 230, 231, 232, 233, 234}, {235, 236, 237, 238, 239, 240}, {241, 242, 243, 244, 245, 246}, {247, 248, 249, 250, 251, 252}, {253, 254, 255, 256, 257, 258}, {259, 260, 261, 262, 263, 264}, {265, 266, 267, 268, 269, 270}, {271, 272, 273, 274, 275, 276}, {277, 278, 279, 280, 281, 282}, {283, 284, 285, 286, 287, 288}, {289, 290, 291, 292, 293, 294}, {295, 296, 297, 298, 299, 300}];
succ =  [{50, 34, 27, 20, 8, 3}, {49, 48, 46, 43, 35, 31, 27, 26, 24, 23, 22, 21, 18}, {46, 45, 31, 24, 18, 11}, {47, 43, 32, 27, 22, 7}, {48, 47, 45, 42, 41, 34, 31, 29, 28, 26, 20}, {49, 47, 42, 41, 40, 33, 31, 30, 29, 20}, {46, 45, 42, 40, 31, 29, 28, 24}, {47, 46, 45, 42, 32, 30, 22}, {48, 47, 46, 45, 43, 41, 32, 31, 28}, {50, 49, 45, 44, 41, 34, 32, 31, 29}, {49, 48, 44, 43, 42, 39, 29, 26}, {46, 44, 42, 26, 24}, {48, 46, 44, 43, 42, 40, 36, 30, 29}, {45, 43, 42, 39, 38, 30, 26}, {43, 41, 39, 38, 33, 32, 26}, {43, 42, 41, 40, 36, 27}, {47, 39, 36, 23}, {47, 41, 39, 38, 36, 30}, {43, 42, 40, 33, 28}, {46, 44, 43, 39, 38, 36}, {42, 40, 39, 38, 37, 36}, {44, 40, 39, 36}, {45, 41, 38, 37}, {41, 39, 30}, {39, 38, 33}, {40, 37, 36}, {38, 29}, {38, 36}, {37}, {37}, {36}, {36}, {36}, {36}, {37}, {}, {}, {}, {}, {}, {}, {}, {}, {}, {}, {}, {}, {}, {}, {}];
n_opt = 300;
dur = [2, 7, 14, 15, 17, 20, 1, 2, 3, 4, 11, 20, 2, 4, 8, 10, 11, 19, 2, 6, 10, 11, 12, 18, 1, 5, 7, 9, 13, 17, 6, 8, 9, 11, 18, 20, 2, 3, 8, 12, 14, 16, 4, 5, 10, 11, 14, 17, 1, 5, 9, 11, 15, 18, 3, 4, 5, 7, 10, 17, 3, 11, 12, 13, 19, 20, 1, 5, 7, 8, 16, 18, 3, 6, 7, 10, 11, 17, 3, 6, 9, 13, 14, 16, 3, 5, 9, 13, 14, 15, 3, 7, 8, 16, 17, 20, 12, 13, 14, 16, 17, 19, 2, 8, 9, 15, 16, 20, 2, 10, 16, 17, 18, 19, 4, 6, 7, 17, 18, 19, 1, 5, 6, 7, 9, 15, 1, 2, 6, 11, 13, 14, 2, 5, 14, 15, 16, 18, 7, 10, 12, 16, 17, 20, 5, 7, 10, 17, 19, 20, 7, 12, 13, 17, 18, 20, 2, 3, 5, 7, 8, 14, 8, 9, 12, 15, 18, 20, 6, 7, 9, 10, 12, 19, 1, 5, 8, 13, 16, 19, 3, 5, 7, 10, 12, 16, 4, 6, 9, 14, 16, 17, 3, 4, 5, 13, 15, 19, 1, 3, 9, 10, 13, 20, 1, 4, 10, 13, 19, 20, 5, 6, 7, 13, 18, 20, 6, 7, 9, 11, 13, 19, 1, 3, 6, 12, 14, 17, 1, 2, 8, 9, 18, 19, 2, 3, 13, 15, 19, 20, 1, 2, 8, 9, 15, 19, 5, 9, 14, 16, 17, 20, 1, 3, 9, 10, 13, 16, 4, 9, 10, 15, 16, 17, 2, 6, 11, 18, 19, 20, 2, 3, 7, 11, 12, 15, 4, 6, 7, 8, 12, 18, 2, 8, 13, 14, 16, 19, 6, 9, 12, 16, 17, 20, 5, 6, 11, 12, 13, 18];
rreq = [|19, 17, 17, 15, 14, 13, 7, 7, 5, 4, 4, 2, 2, 2, 2, 2, 2, 2, 6, 6, 6, 6, 6, 6, 16, 14, 14, 14, 13, 12, 20, 17, 12, 12, 6, 5, 20, 18, 15, 15, 12, 11, 11, 10, 9, 9, 8, 8, 20, 18, 16, 15, 14, 12, 4, 4, 4, 3, 2, 2, 16, 13, 12, 7, 5, 4, 10, 9, 9, 9, 8, 8, 10, 7, 7, 5, 2, 1, 7, 7, 7, 6, 6, 5, 7, 5, 5, 4, 3, 2, 10, 9, 9, 9, 9, 9, 3, 3, 3, 3, 2, 2, 11, 11, 9, 8, 7, 7, 7, 6, 6, 5, 4, 3, 11, 11, 11, 10, 9, 9, 18, 18, 17, 16, 15, 15, 8, 8, 6, 5, 5, 4, 18, 18, 18, 18, 18, 18, 18, 17, 13, 12, 11, 8, 13, 11, 10, 9, 6, 5, 9, 8, 8, 7, 7, 6, 18, 17, 16, 16, 14, 14, 16, 15, 11, 9, 5, 5, 17, 13, 10, 8, 8, 3, 13, 11, 10, 9, 8, 5, 4, 3, 3, 2, 2, 2, 12, 12, 11, 10, 10, 9, 17, 16, 14, 13, 12, 12, 17, 14, 13, 10, 7, 5, 19, 18, 18, 17, 17, 17, 14, 14, 13, 12, 10, 10, 17, 17, 17, 17, 16, 16, 20, 16, 13, 11, 11, 7, 10, 10, 10, 10, 9, 9, 12, 11, 10, 10, 8, 8, 13, 13, 13, 12, 12, 12, 16, 16, 16, 15, 15, 15, 18, 18, 18, 18, 17, 17, 11, 11, 11, 11, 11, 11, 15, 11, 8, 5, 4, 1, 9, 8, 6, 6, 4, 4, 17, 16, 13, 10, 10, 7, 17, 16, 15, 15, 15, 14, 13, 12, 11, 11, 11, 10, 19, 17, 17, 16, 15, 15
 |8, 7, 6, 6, 5, 5, 18, 14, 13, 11, 10, 7, 15, 11, 10, 8, 5, 3, 18, 18, 18, 17, 16, 16, 5, 5, 5, 5, 5, 5, 19, 17, 15, 14, 12, 9, 17, 16, 16, 15, 14, 12, 10, 10, 10, 10, 10, 10, 10, 9, 9, 9, 9, 9, 13, 11, 7, 5, 3, 3, 8, 8, 8, 8, 8, 8, 16, 16, 14, 14, 13, 11, 12, 8, 8, 7, 5, 3, 10, 8, 7, 6, 4, 3, 10, 10, 9, 9, 9, 8, 19, 16, 13, 12, 7, 6, 18, 17, 17, 16, 15, 15, 4, 3, 3, 3, 3, 3, 16, 15, 15, 14, 14, 13, 14, 10, 10, 7, 5, 4, 17, 14, 13, 12, 10, 8, 13, 10, 10, 8, 7, 6, 15, 13, 12, 11, 10, 7, 15, 14, 14, 12, 10, 8, 5, 4, 3, 2, 2, 1, 14, 13, 10, 7, 6, 5, 16, 14, 11, 8, 7, 5, 17, 14, 13, 12, 10, 9, 16, 12, 12, 10, 8, 7, 18, 18, 18, 18, 18, 18, 15, 13, 11, 7, 7, 5, 3, 3, 3, 2, 2, 2, 19, 18, 18, 18, 18, 18, 16, 16, 15, 12, 11, 10, 4, 4, 4, 3, 3, 3, 16, 16, 11, 9, 5, 1, 7, 7, 6, 5, 4, 4, 17, 12, 10, 7, 4, 2, 5, 5, 5, 4, 4, 3, 13, 11, 10, 7, 6, 3, 8, 8, 8, 7, 7, 6, 13, 13, 12, 10, 9, 9, 16, 13, 11, 8, 4, 3, 19, 19, 19, 18, 17, 17, 13, 13, 12, 11, 10, 9, 13, 13, 13, 13, 13, 13, 19, 18, 18, 17, 17, 16, 7, 5, 4, 4, 2, 1, 13, 13, 12, 12, 12, 11, 14, 10, 8, 8, 6, 4
 |7, 5, 5, 5, 4, 3, 12, 9, 7, 7, 3, 1, 19, 17, 17, 17, 15, 15, 9, 9, 9, 9, 9, 9, 10, 8, 6, 5, 4, 4, 13, 13, 12, 12, 11, 10, 9, 8, 8, 7, 7, 6, 16, 16, 15, 14, 13, 12, 2, 2, 2, 2, 2, 2, 14, 14, 11, 10, 8, 6, 3, 3, 3, 3, 3, 3, 14, 14, 12, 12, 11, 10, 6, 5, 5, 5, 5, 5, 12, 11, 9, 9, 8, 7, 10, 8, 8, 7, 6, 6, 9, 8, 7, 6, 6, 5, 14, 14, 13, 12, 11, 10, 17, 17, 16, 16, 14, 14, 16, 16, 16, 16, 16, 16, 14, 9, 8, 6, 3, 3, 16, 13, 12, 9, 8, 5, 18, 15, 14, 13, 11, 10, 19, 18, 18, 18, 18, 18, 16, 15, 11, 7, 6, 1, 18, 17, 17, 16, 15, 15, 13, 13, 13, 13, 13, 13, 16, 15, 14, 11, 11, 8, 8, 6, 4, 3, 3, 1, 5, 4, 4, 3, 3, 3, 17, 15, 14, 11, 10, 9, 7, 6, 5, 5, 4, 3, 17, 16, 16, 15, 14, 13, 14, 13, 11, 10, 9, 7, 11, 11, 11, 11, 11, 11, 15, 15, 15, 15, 15, 15, 10, 10, 8, 6, 6, 3, 18, 16, 15, 14, 12, 11, 20, 19, 19, 19, 19, 19, 20, 16, 16, 12, 12, 9, 9, 7, 6, 5, 3, 2, 15, 14, 13, 13, 12, 10, 15, 15, 10, 9, 5, 3, 20, 19, 19, 18, 17, 17, 16, 13, 12, 9, 9, 7, 10, 9, 8, 7, 7, 6, 14, 11, 10, 9, 7, 5, 10, 9, 8, 8, 7, 7, 11, 8, 7, 4, 4, 1, 9, 9, 9, 8, 8, 8, 6, 6, 6, 6, 6, 6
 |14, 11, 11, 9, 9, 7, 14, 13, 13, 13, 13, 13, 6, 5, 5, 5, 5, 5, 6, 5, 4, 6, 6, 5, 17, 13, 10, 10, 5, 4, 20, 17, 17, 14, 13, 12, 6, 5, 5, 4, 3, 3, 11, 10, 8, 8, 6, 6, 18, 18, 18, 17, 17, 16, 9, 8, 8, 7, 7, 6, 14, 12, 9, 8, 5, 5, 8, 8, 8, 7, 7, 6, 18, 17, 14, 12, 11, 9, 20, 18, 16, 14, 12, 12, 13, 12, 12, 11, 10, 9, 10, 9, 9, 9, 9, 9, 10, 8, 8, 5, 4, 3, 16, 13, 10, 9, 5, 4, 16, 14, 13, 11, 10, 8, 13, 11, 9, 8, 6, 5, 14, 13, 12, 12, 11, 11, 14, 13, 13, 13, 12, 12, 17, 16, 12, 8, 7, 3, 11, 9, 9, 7, 5, 2, 19, 14, 14, 9, 7, 7, 18, 14, 13, 7, 6, 1, 17, 16, 16, 14, 12, 11, 17, 13, 10, 8, 6, 3, 13, 11, 9, 6, 4, 3, 8, 8, 8, 8, 8, 8, 15, 14, 14, 13, 12, 11, 7, 6, 6, 6, 6, 6, 12, 11, 11, 10, 10, 9, 13, 10, 7, 5, 4, 3, 15, 14, 13, 13, 11, 10, 10, 9, 8, 8, 6, 6, 12, 11, 11, 11, 11, 11, 17, 17, 17, 17, 17, 17, 18, 18, 17, 17, 17, 17, 8, 7, 6, 5, 4, 2, 15, 14, 13, 13, 11, 11, 10, 9, 10, 10, 10, 10, 5, 4, 4, 3, 2, 2, 18, 18, 18, 18, 18, 18, 7, 6, 6, 5, 5, 5, 18, 16, 15, 15, 14, 13, 13, 12, 12, 11, 10, 10, 5, 4, 4, 3, 3, 3, 12, 11, 10, 9, 5, 5, 18, 17, 17, 17, 15, 15|];